
Gurobi 6.5.2 (linux64) logging started Tue Sep 20 21:16:19 2016


Gurobi 6.5.2 (linux64) logging started Tue Sep 20 21:16:19 2016

Optimize a model with 41 rows, 153 columns and 317 nonzeros
Coefficient statistics:
  Matrix range    [1e+00, 2e+00]
  Objective range [3e+00, 1e+02]
  Bounds range    [1e+00, 1e+00]
  RHS range       [1e+00, 1e+00]
Presolve removed 16 rows and 11 columns
Presolve time: 0.00s
Presolved: 25 rows, 142 columns, 289 nonzeros
Variable types: 0 continuous, 142 integer (142 binary)
Found heuristic solution: objective 542.0000000

Root relaxation: objective 4.745000e+02, 33 iterations, 0.00 seconds

    Nodes    |    Current Node    |     Objective Bounds      |     Work
 Expl Unexpl |  Obj  Depth IntInf | Incumbent    BestBd   Gap | It/Node Time

     0     0  474.50000    0   10  542.00000  474.50000  12.5%     -    0s
H    0     0                     537.0000000  474.50000  11.6%     -    0s
*    0     0               0     477.0000000  477.00000  0.00%     -    0s

Cutting planes:
  Gomory: 1
  Zero half: 2
  Lazy constraints: 1

Explored 0 nodes (37 simplex iterations) in 0.00 seconds
Thread count was 8 (of 8 available processors)

Optimal solution found (tolerance 1.00e-04)
Best objective 4.770000000000e+02, best bound 4.770000000000e+02, gap 0.0%
